50 100
35 64
45 17
22 113
41 98
48 161
8 143
23 161
34 194
14 30
32 133
36 100
40 93
28 93
24 24
42 114
3 81
12 158
30 138
15 166
37 198
13 113
43 108
16 184
7 37
5 199
50 141
20 115
46 113
25 179
1 157
10 11
9 115
44 165
33 163
19 102
26 183
2 148
18 12
47 78
6 8
39 106
29 75
27 187
49 58
11 115
17 159
21 10
4 21
31 73
38 137